qbf_easy_train/easy_2320_SAT.qdimacs
p cnf 24 62
a 2 11 0
e 1 3 4 5 6 7 8 9 10 12 13 14 15 16 17 18 19 20 21 22 23 24 0
1 2 -3 0
-1 -2 -3 0
1 -2 3 0
-1 2 3 0
-5 -3 0
-5 4 0
3 -4 5 0
7 6 0
7 6 0
-6 -7 0
8 4 -9 0
-8 -4 -9 0
8 -4 9 0
-8 4 9 0
-11 -1 0
-11 -10 0
1 10 11 0
13 11 0
13 12 0
-11 -12 -13 0
-14 -13 0
-14 2 0
13 -2 14 0
-16 -15 0
-16 -15 0
15 16 0
-12 -8 -17 0
12 8 -17 0
-12 8 17 0
12 -8 17 0
18 -16 0
18 -17 0
16 17 -18 0
14 -18 -19 0
-14 18 -19 0
14 18 19 0
-14 -18 19 0
9 -19 -20 0
-9 19 -20 0
9 19 20 0
-9 -19 20 0
21 8 0
21 -10 0
-8 10 -21 0
22 20 0
22 -21 0
-20 21 -22 0
-7 -22 -23 0
7 22 -23 0
-7 22 23 0
7 -22 23 0
-5 23 -24 0
5 -23 -24 0
-5 -23 24 0
5 23 24 0
-1 -13 -8 -4 22 0
24 3 -16 -15 18 -1 0
23 8 22 -12 -13 -19 -17 0
6 -14 -20 10 -22 -9 16 0
2 16 -9 0
-21 11 -15 -8 -5 0
24 0
