sat_easy_train/easy_2320_SAT.dimacs
p cnf 105 345
-3 -1 0
-3 2 0
1 -2 3 0
4 -5 -6 0
-4 5 -6 0
4 5 6 0
-4 -5 6 0
7 3 0
7 6 0
-3 -6 -7 0
8 9 -10 0
-8 -9 -10 0
8 -9 10 0
-8 9 10 0
11 2 0
11 -9 0
-2 9 -11 0
-12 10 0
-12 11 0
-10 -11 12 0
-13 7 0
-13 12 0
-7 -12 13 0
14 15 -16 0
-14 -15 -16 0
14 -15 16 0
-14 15 16 0
18 -16 0
18 17 0
16 -17 -18 0
19 13 0
19 -18 0
-13 18 -19 0
21 9 0
21 20 0
-9 -20 -21 0
21 22 -23 0
-21 -22 -23 0
21 -22 23 0
-21 22 23 0
19 -23 -24 0
-19 23 -24 0
19 23 24 0
-19 -23 24 0
-26 -25 0
-26 -3 0
25 3 26 0
-24 -26 -27 0
24 26 -27 0
-24 26 27 0
24 -26 27 0
-30 -28 0
-30 29 0
28 -29 30 0
-31 -15 0
-31 -29 0
15 29 31 0
30 -31 -32 0
-30 31 -32 0
30 31 32 0
-30 -31 32 0
-33 -20 0
-33 -32 0
20 32 33 0
34 27 0
34 -33 0
-27 33 -34 0
5 -31 -35 0
-5 31 -35 0
5 31 35 0
-5 -31 35 0
35 -15 -36 0
-35 15 -36 0
35 15 36 0
-35 -15 36 0
37 6 0
37 -2 0
-6 2 -37 0
-38 36 0
-38 37 0
-36 -37 38 0
40 -2 0
40 -39 0
2 39 -40 0
-41 -20 0
-41 -22 0
20 22 41 0
-42 -41 0
-42 30 0
41 -30 42 0
-43 -40 0
-43 -42 0
40 42 43 0
44 -8 0
44 -35 0
8 35 -44 0
-10 -4 -45 0
10 4 -45 0
-10 4 45 0
10 -4 45 0
-46 44 0
-46 45 0
-44 -45 46 0
-47 -43 0
-47 -46 0
43 46 47 0
48 5 0
48 5 0
-5 -48 0
49 48 0
49 40 0
-48 -40 -49 0
50 5 0
50 -2 0
-5 2 -50 0
-51 -50 0
-51 -14 0
50 14 51 0
-49 51 -52 0
49 -51 -52 0
-49 -51 52 0
49 51 52 0
-53 47 0
-53 52 0
-47 -52 53 0
-38 -53 -54 0
38 53 -54 0
-38 53 54 0
38 -53 54 0
55 34 0
55 54 0
-34 -54 -55 0
39 28 -56 0
-39 -28 -56 0
39 -28 56 0
-39 28 56 0
57 -56 0
57 56 0
59 58 0
59 6 0
-58 -6 -59 0
-60 56 0
-60 57 0
-56 -57 60 0
-61 59 0
-61 60 0
-59 -60 61 0
-57 61 -62 0
57 -61 -62 0
-57 -61 62 0
57 61 62 0
-50 -1 -63 0
50 1 -63 0
-50 1 63 0
50 -1 63 0
64 63 0
64 59 0
-63 -59 -64 0
62 64 -65 0
-62 -64 -65 0
62 -64 65 0
-62 64 65 0
5 4 -66 0
-5 -4 -66 0
5 -4 66 0
-5 4 66 0
5 -50 -67 0
-5 50 -67 0
5 50 67 0
-5 -50 67 0
68 9 0
68 -67 0
-9 67 -68 0
-66 68 -69 0
66 -68 -69 0
-66 -68 69 0
66 68 69 0
-65 -69 -70 0
65 69 -70 0
-65 69 70 0
65 -69 70 0
-71 42 0
-71 42 0
-42 71 0
31 71 -72 0
-31 -71 -72 0
31 -71 72 0
-31 71 72 0
59 72 -73 0
-59 -72 -73 0
59 -72 73 0
-59 72 73 0
-74 73 0
-74 40 0
-73 -40 74 0
75 70 0
75 -74 0
-70 74 -75 0
76 2 0
76 -15 0
-2 15 -76 0
-58 42 -77 0
58 -42 -77 0
-58 -42 77 0
58 42 77 0
60 -77 -78 0
-60 77 -78 0
60 77 78 0
-60 -77 78 0
60 41 -79 0
-60 -41 -79 0
60 -41 79 0
-60 41 79 0
78 79 -80 0
-78 -79 -80 0
78 -79 80 0
-78 79 80 0
-81 -63 0
-81 -67 0
63 67 81 0
-81 -11 -82 0
81 11 -82 0
-81 11 82 0
81 -11 82 0
-83 31 0
-83 28 0
-31 -28 83 0
-84 81 0
-84 -83 0
-81 83 84 0
82 -84 -85 0
-82 84 -85 0
82 84 85 0
-82 -84 85 0
-80 85 -86 0
80 -85 -86 0
-80 -85 86 0
80 85 86 0
-87 -9 0
-87 39 0
9 -39 87 0
-88 86 0
-88 87 0
-86 -87 88 0
89 -76 0
89 88 0
76 -88 -89 0
-90 75 0
-90 89 0
-75 -89 90 0
-91 31 0
-91 -77 0
-31 77 91 0
92 91 0
92 3 0
-91 -3 -92 0
93 -90 0
93 -92 0
90 92 -93 0
94 22 0
94 10 0
-22 -10 -94 0
-95 -94 0
-95 -10 0
94 10 95 0
-96 -42 0
-96 -61 0
42 61 96 0
97 -95 0
97 -96 0
95 96 -97 0
98 -50 0
98 10 0
50 -10 -98 0
-98 20 -99 0
98 -20 -99 0
-98 -20 99 0
98 20 99 0
-100 -1 0
-100 -99 0
1 99 100 0
101 -28 0
101 5 0
28 -5 -101 0
-100 101 -102 0
100 -101 -102 0
-100 -101 102 0
100 101 102 0
-103 -97 0
-103 102 0
97 -102 103 0
93 -103 -104 0
-93 103 -104 0
93 103 104 0
-93 -103 104 0
55 -104 -105 0
-55 104 -105 0
55 104 105 0
-55 -104 105 0
58 -50 0
-34 42 8 -52 96 0
33 -94 -16 0
-67 -84 0
-59 13 -99 -78 56 32 0
97 47 -50 -4 0
-73 24 6 0
-69 20 99 -104 -61 0
-46 -60 32 15 -103 0
36 85 0
-35 -63 0
-58 98 69 -20 -22 0
45 57 16 0
88 100 -68 0
-30 76 0
64 104 -45 0
1 4 -98 88 35 57 0
-65 -52 -36 -33 95 56 0
27 -101 -11 0
5 -46 -56 100 0
-94 -57 42 -98 -88 -19 0
-51 -93 79 42 -10 0
-47 33 0
31 -15 45 0
-2 87 35 -100 -54 -32 0
-25 64 103 -91 32 0
12 -9 0
-63 -22 -102 2 -56 -24 0
91 -57 -64 0
80 -93 0
12 55 17 -48 0
-29 -41 99 0
1 32 21 -54 85 0
-91 -90 5 70 14 0
-27 -57 -41 0
-51 48 70 -79 -10 0
70 26 0
-105 -45 0
99 -6 8 -89 86 0
-61 -96 82 -4 0
3 -40 54 0
-53 -38 63 -76 0
-1 -6 49 -7 0
10 -12 0
-55 65 98 27 87 -83 0
105 0
